\ENCODING=ISO-8859-1
\Problem name: IloCplex

Maximize
 obj1: - 50000 planes + 120 x2 + 100 x3 + 95 x4 + 840 x5 + 700 x6 + 665 x7
       + 240 x8 + 200 x9 + 190 x10 + 90 x11 + 80 x12 + 60 x13 + 630 x14
       + 560 x15 + 420 x16 + 180 x17 + 160 x18 + 120 x19 + 50 x20 + 30 x21
       + 20 x22 + 350 x23 + 210 x24 + 140 x25 + 100 x26 + 60 x27 + 40 x28
       + 14 x29 + 13 x30 + 11.5 x31 + 98 x32 + 91 x33 + 80.5 x34 + 28 x35
       + 26 x36 + 23 x37 + 11 x38 + 9 x39 + 7.5 x40 + 77 x41 + 63 x42
       + 52.5 x43 + 22 x44 + 18 x45 + 15 x46 + 7 x47 + 4 x48 + 3.5 x49 + 49 x50
       + 28 x51 + 24.5 x52 + 14 x53 + 8 x54 + 7 x55 + 98 x56 + 91 x57
       + 80.5 x58 + 686 x59 + 637 x60 + 563.5 x61 + 196 x62 + 182 x63 + 161 x64
       + 77 x65 + 63 x66 + 52.5 x67 + 539 x68 + 441 x69 + 367.5 x70 + 154 x71
       + 126 x72 + 105 x73 + 49 x74 + 28 x75 + 24.5 x76 + 343 x77 + 196 x78
       + 171.5 x79 + 98 x80 + 56 x81 + 49 x82 + 28 x83 + 26 x84 + 23 x85
       + 196 x86 + 182 x87 + 161 x88 + 56 x89 + 52 x90 + 46 x91 + 22 x92
       + 18 x93 + 15 x94 + 154 x95 + 126 x96 + 105 x97 + 44 x98 + 36 x99
       + 30 x100 + 14 x101 + 8 x102 + 7 x103 + 98 x104 + 56 x105 + 49 x106
       + 28 x107 + 16 x108 + 14 x109 + 1.5 x110 + 0.9 x111 + 0.85 x112
       + 10.5 x113 + 6.3 x114 + 5.95 x115 + 3 x116 + 1.8 x117 + 1.7 x118
       + 0.82 x119 + 0.8 x120 + 0.5 x121 + 5.74 x122 + 5.6 x123 + 3.5 x124
       + 1.64 x125 + 1.6 x126 + x127 + 0.48 x128 + 0.47 x129 + 0.45 x130
       + 3.36 x131 + 3.29 x132 + 3.15 x133 + 0.96 x134 + 0.94 x135 + 0.9 x136
       + 10.5 x137 + 6.3 x138 + 5.95 x139 + 73.5 x140 + 44.1 x141 + 41.65 x142
       + 21 x143 + 12.6 x144 + 11.9 x145 + 5.74 x146 + 5.6 x147 + 3.5 x148
       + 40.18 x149 + 39.2 x150 + 24.5 x151 + 11.48 x152 + 11.2 x153 + 7 x154
       + 3.36 x155 + 3.29 x156 + 3.15 x157 + 23.52 x158 + 23.03 x159
       + 22.05 x160 + 6.72 x161 + 6.58 x162 + 6.3 x163 + 3 x164 + 1.8 x165
       + 1.7 x166 + 21 x167 + 12.6 x168 + 11.9 x169 + 6 x170 + 3.6 x171
       + 3.4 x172 + 1.64 x173 + 1.6 x174 + x175 + 11.48 x176 + 11.2 x177
       + 7 x178 + 3.28 x179 + 3.2 x180 + 2 x181 + 0.96 x182 + 0.94 x183
       + 0.9 x184 + 6.72 x185 + 6.58 x186 + 6.3 x187 + 1.92 x188 + 1.88 x189
       + 1.8 x190 + 10.5 x191 + 6.3 x192 + 5.95 x193 + 73.5 x194 + 44.1 x195
       + 41.65 x196 + 21 x197 + 12.6 x198 + 11.9 x199 + 5.74 x200 + 5.6 x201
       + 3.5 x202 + 40.18 x203 + 39.2 x204 + 24.5 x205 + 11.48 x206 + 11.2 x207
       + 7 x208 + 3.36 x209 + 3.29 x210 + 3.15 x211 + 23.52 x212 + 23.03 x213
       + 22.05 x214 + 6.72 x215 + 6.58 x216 + 6.3 x217 + 73.5 x218 + 44.1 x219
       + 41.65 x220 + 514.5 x221 + 308.7 x222 + 291.55 x223 + 147 x224
       + 88.2 x225 + 83.3 x226 + 40.18 x227 + 39.2 x228 + 24.5 x229
       + 281.26 x230 + 274.4 x231 + 171.5 x232 + 80.36 x233 + 78.4 x234
       + 49 x235 + 23.52 x236 + 23.03 x237 + 22.05 x238 + 164.64 x239
       + 161.21 x240 + 154.35 x241 + 47.04 x242 + 46.06 x243 + 44.1 x244
       + 21 x245 + 12.6 x246 + 11.9 x247 + 147 x248 + 88.2 x249 + 83.3 x250
       + 42 x251 + 25.2 x252 + 23.8 x253 + 11.48 x254 + 11.2 x255 + 7 x256
       + 80.36 x257 + 78.4 x258 + 49 x259 + 22.96 x260 + 22.4 x261 + 14 x262
       + 6.72 x263 + 6.58 x264 + 6.3 x265 + 47.04 x266 + 46.06 x267 + 44.1 x268
       + 13.44 x269 + 13.16 x270 + 12.6 x271 + 3 x272 + 1.8 x273 + 1.7 x274
       + 21 x275 + 12.6 x276 + 11.9 x277 + 6 x278 + 3.6 x279 + 3.4 x280
       + 1.64 x281 + 1.6 x282 + x283 + 11.48 x284 + 11.2 x285 + 7 x286
       + 3.28 x287 + 3.2 x288 + 2 x289 + 0.96 x290 + 0.94 x291 + 0.9 x292
       + 6.72 x293 + 6.58 x294 + 6.3 x295 + 1.92 x296 + 1.88 x297 + 1.8 x298
       + 21 x299 + 12.6 x300 + 11.9 x301 + 147 x302 + 88.2 x303 + 83.3 x304
       + 42 x305 + 25.2 x306 + 23.8 x307 + 11.48 x308 + 11.2 x309 + 7 x310
       + 80.36 x311 + 78.4 x312 + 49 x313 + 22.96 x314 + 22.4 x315 + 14 x316
       + 6.72 x317 + 6.58 x318 + 6.3 x319 + 47.04 x320 + 46.06 x321 + 44.1 x322
       + 13.44 x323 + 13.16 x324 + 12.6 x325 + 6 x326 + 3.6 x327 + 3.4 x328
       + 42 x329 + 25.2 x330 + 23.8 x331 + 12 x332 + 7.2 x333 + 6.8 x334
       + 3.28 x335 + 3.2 x336 + 2 x337 + 22.96 x338 + 22.4 x339 + 14 x340
       + 6.56 x341 + 6.4 x342 + 4 x343 + 1.92 x344 + 1.88 x345 + 1.8 x346
       + 13.44 x347 + 13.16 x348 + 12.6 x349 + 3.84 x350 + 3.76 x351 + 3.6 x352
Subject To
 c1:   x1_0_0 + x1_0_1 + x1_0_2  = 1
 c2:   x1_1_0 + x1_1_1 + x1_1_2  = 1
 c3:   x1_2_0 + x1_2_1 + x1_2_2  = 1
 c4:   x362 + x363 + x364  = 1
 c5:   x365 + x366 + x367  = 1
 c6:   x368 + x369 + x370  = 1
 c7:   x371 + x372 + x373  = 1
 c8:   x374 + x375 + x376  = 1
 c9:   x377 + x378 + x379  = 1
 c10:  x380 + x381 + x382  = 1
 c11:  x383 + x384 + x385  = 1
 c12:  x386 + x387 + x388  = 1
 c13:  x389 + x390 + x391  = 1
 c14:  x392 + x393 + x394  = 1
 c15:  x395 + x396 + x397  = 1
 c16:  x398 + x399 + x400  = 1
 c17:  x401 + x402 + x403  = 1
 c18:  x404 + x405 + x406  = 1
 c19:  x407 + x408 + x409  = 1
 c20:  x410 + x411 + x412  = 1
 c21:  x413 + x414 + x415  = 1
 c22:  x416 + x417 + x418  = 1
 c23:  x419 + x420 + x421  = 1
 c24:  x422 + x423 + x424  = 1
 c25:  x425 + x426 + x427  = 1
 c26:  x428 + x429 + x430  = 1
 c27:  x431 + x432 + x433  = 1
 c28:  x434 + x435 + x436  = 1
 c29:  x437 + x438 + x439  = 1
 c30:  x440 + x441 + x442  = 1
 c31:  x443 + x444 + x445  = 1
 c32:  x446 + x447 + x448  = 1
 c33:  x449 + x450 + x451  = 1
 c34:  x452 + x453 + x454  = 1
 c35:  x455 + x456 + x457  = 1
 c36:  x458 + x459 + x460  = 1
 c37:  x461 + x462 + x463  = 1
 c38:  x464 + x465 + x466  = 1
 c39:  x467 + x468 + x469  = 1
 c40:  x2 - 10 x1_0_0 <= 0
 c41:  x3 - 15 x1_0_1 <= 0
 c42:  x4 - 20 x1_0_2 <= 0
 c43:  x5 - 20 x1_0_0 <= 0
 c44:  x6 - 25 x1_0_1 <= 0
 c45:  x7 - 35 x1_0_2 <= 0
 c46:  x8 - 45 x1_0_0 <= 0
 c47:  x9 - 50 x1_0_1 <= 0
 c48:  x10 - 60 x1_0_2 <= 0
 c49:  x11 - 20 x1_1_0 <= 0
 c50:  x12 - 25 x1_1_1 <= 0
 c51:  x13 - 35 x1_1_2 <= 0
 c52:  x14 - 40 x1_1_0 <= 0
 c53:  x15 - 42 x1_1_1 <= 0
 c54:  x16 - 45 x1_1_2 <= 0
 c55:  x17 - 45 x1_1_0 <= 0
 c56:  x18 - 46 x1_1_1 <= 0
 c57:  x19 - 47 x1_1_2 <= 0
 c58:  x20 - 45 x1_2_0 <= 0
 c59:  x21 - 55 x1_2_1 <= 0
 c60:  x22 - 60 x1_2_2 <= 0
 c61:  x23 - 50 x1_2_0 <= 0
 c62:  x24 - 52 x1_2_1 <= 0
 c63:  x25 - 63 x1_2_2 <= 0
 c64:  x26 - 55 x1_2_0 <= 0
 c65:  x27 - 56 x1_2_1 <= 0
 c66:  x28 - 64 x1_2_2 <= 0
 c67:  x29 - 20 x362 <= 0
 c68:  x30 - 25 x363 <= 0
 c69:  x31 - 35 x364 <= 0
 c70:  x32 - 10 x362 <= 0
 c71:  x33 - 40 x363 <= 0
 c72:  x34 - 50 x364 <= 0
 c73:  x35 - 50 x362 <= 0
 c74:  x36 - 55 x363 <= 0
 c75:  x37 - 80 x364 <= 0
 c76:  x38 - 42 x365 <= 0
 c77:  x39 - 45 x366 <= 0
 c78:  x40 - 46 x367 <= 0
 c79:  x41 - 50 x365 <= 0
 c80:  x42 - 60 x366 <= 0
 c81:  x43 - 80 x367 <= 0
 c82:  x44 - 20 x365 <= 0
 c83:  x45 - 30 x366 <= 0
 c84:  x46 - 50 x367 <= 0
 c85:  x47 - 50 x368 <= 0
 c86:  x48 - 52 x369 <= 0
 c87:  x49 - 60 x370 <= 0
 c88:  x50 - 60 x368 <= 0
 c89:  x51 - 65 x369 <= 0
 c90:  x52 - 90 x370 <= 0
 c91:  x53 - 10 x368 <= 0
 c92:  x54 - 40 x369 <= 0
 c93:  x55 - 60 x370 <= 0
 c94:  x56 - 20 x371 <= 0
 c95:  x57 - 25 x372 <= 0
 c96:  x58 - 35 x373 <= 0
 c97:  x59 - 10 x371 <= 0
 c98:  x60 - 40 x372 <= 0
 c99:  x61 - 50 x373 <= 0
 c100: x62 - 50 x371 <= 0
 c101: x63 - 55 x372 <= 0
 c102: x64 - 80 x373 <= 0
 c103: x65 - 42 x374 <= 0
 c104: x66 - 45 x375 <= 0
 c105: x67 - 46 x376 <= 0
 c106: x68 - 50 x374 <= 0
 c107: x69 - 60 x375 <= 0
 c108: x70 - 80 x376 <= 0
 c109: x71 - 20 x374 <= 0
 c110: x72 - 30 x375 <= 0
 c111: x73 - 50 x376 <= 0
 c112: x74 - 50 x377 <= 0
 c113: x75 - 52 x378 <= 0
 c114: x76 - 60 x379 <= 0
 c115: x77 - 60 x377 <= 0
 c116: x78 - 65 x378 <= 0
 c117: x79 - 90 x379 <= 0
 c118: x80 - 10 x377 <= 0
 c119: x81 - 40 x378 <= 0
 c120: x82 - 60 x379 <= 0
 c121: x83 - 20 x380 <= 0
 c122: x84 - 25 x381 <= 0
 c123: x85 - 35 x382 <= 0
 c124: x86 - 10 x380 <= 0
 c125: x87 - 40 x381 <= 0
 c126: x88 - 50 x382 <= 0
 c127: x89 - 50 x380 <= 0
 c128: x90 - 55 x381 <= 0
 c129: x91 - 80 x382 <= 0
 c130: x92 - 42 x383 <= 0
 c131: x93 - 45 x384 <= 0
 c132: x94 - 46 x385 <= 0
 c133: x95 - 50 x383 <= 0
 c134: x96 - 60 x384 <= 0
 c135: x97 - 80 x385 <= 0
 c136: x98 - 20 x383 <= 0
 c137: x99 - 30 x384 <= 0
 c138: x100 - 50 x385 <= 0
 c139: x101 - 50 x386 <= 0
 c140: x102 - 52 x387 <= 0
 c141: x103 - 60 x388 <= 0
 c142: x104 - 60 x386 <= 0
 c143: x105 - 65 x387 <= 0
 c144: x106 - 90 x388 <= 0
 c145: x107 - 10 x386 <= 0
 c146: x108 - 40 x387 <= 0
 c147: x109 - 60 x388 <= 0
 c148: x110 - 30 x389 <= 0
 c149: x111 - 35 x390 <= 0
 c150: x112 - 40 x391 <= 0
 c151: x113 - 30 x389 <= 0
 c152: x114 - 40 x390 <= 0
 c153: x115 - 60 x391 <= 0
 c154: x116 - 50 x389 <= 0
 c155: x117 - 70 x390 <= 0
 c156: x118 - 80 x391 <= 0
 c157: x119 - 40 x392 <= 0
 c158: x120 - 50 x393 <= 0
 c159: x121 - 55 x394 <= 0
 c160: x122 - 10 x392 <= 0
 c161: x123 - 40 x393 <= 0
 c162: x124 - 45 x394 <= 0
 c163: x125 - 40 x392 <= 0
 c164: x126 - 45 x393 <= 0
 c165: x127 - 60 x394 <= 0
 c166: x128 - 50 x395 <= 0
 c167: x129 - 60 x396 <= 0
 c168: x130 - 80 x397 <= 0
 c169: x131 - 50 x395 <= 0
 c170: x132 - 60 x396 <= 0
 c171: x133 - 70 x397 <= 0
 c172: x134 - 60 x395 <= 0
 c173: x135 - 65 x396 <= 0
 c174: x136 - 70 x397 <= 0
 c175: x137 - 30 x398 <= 0
 c176: x138 - 35 x399 <= 0
 c177: x139 - 40 x400 <= 0
 c178: x140 - 30 x398 <= 0
 c179: x141 - 40 x399 <= 0
 c180: x142 - 60 x400 <= 0
 c181: x143 - 50 x398 <= 0
 c182: x144 - 70 x399 <= 0
 c183: x145 - 80 x400 <= 0
 c184: x146 - 40 x401 <= 0
 c185: x147 - 50 x402 <= 0
 c186: x148 - 55 x403 <= 0
 c187: x149 - 10 x401 <= 0
 c188: x150 - 40 x402 <= 0
 c189: x151 - 45 x403 <= 0
 c190: x152 - 40 x401 <= 0
 c191: x153 - 45 x402 <= 0
 c192: x154 - 60 x403 <= 0
 c193: x155 - 50 x404 <= 0
 c194: x156 - 60 x405 <= 0
 c195: x157 - 80 x406 <= 0
 c196: x158 - 50 x404 <= 0
 c197: x159 - 60 x405 <= 0
 c198: x160 - 70 x406 <= 0
 c199: x161 - 60 x404 <= 0
 c200: x162 - 65 x405 <= 0
 c201: x163 - 70 x406 <= 0
 c202: x164 - 30 x407 <= 0
 c203: x165 - 35 x408 <= 0
 c204: x166 - 40 x409 <= 0
 c205: x167 - 30 x407 <= 0
 c206: x168 - 40 x408 <= 0
 c207: x169 - 60 x409 <= 0
 c208: x170 - 50 x407 <= 0
 c209: x171 - 70 x408 <= 0
 c210: x172 - 80 x409 <= 0
 c211: x173 - 40 x410 <= 0
 c212: x174 - 50 x411 <= 0
 c213: x175 - 55 x412 <= 0
 c214: x176 - 10 x410 <= 0
 c215: x177 - 40 x411 <= 0
 c216: x178 - 45 x412 <= 0
 c217: x179 - 40 x410 <= 0
 c218: x180 - 45 x411 <= 0
 c219: x181 - 60 x412 <= 0
 c220: x182 - 50 x413 <= 0
 c221: x183 - 60 x414 <= 0
 c222: x184 - 80 x415 <= 0
 c223: x185 - 50 x413 <= 0
 c224: x186 - 60 x414 <= 0
 c225: x187 - 70 x415 <= 0
 c226: x188 - 60 x413 <= 0
 c227: x189 - 65 x414 <= 0
 c228: x190 - 70 x415 <= 0
 c229: x191 - 30 x416 <= 0
 c230: x192 - 35 x417 <= 0
 c231: x193 - 40 x418 <= 0
 c232: x194 - 30 x416 <= 0
 c233: x195 - 40 x417 <= 0
 c234: x196 - 60 x418 <= 0
 c235: x197 - 50 x416 <= 0
 c236: x198 - 70 x417 <= 0
 c237: x199 - 80 x418 <= 0
 c238: x200 - 40 x419 <= 0
 c239: x201 - 50 x420 <= 0
 c240: x202 - 55 x421 <= 0
 c241: x203 - 10 x419 <= 0
 c242: x204 - 40 x420 <= 0
 c243: x205 - 45 x421 <= 0
 c244: x206 - 40 x419 <= 0
 c245: x207 - 45 x420 <= 0
 c246: x208 - 60 x421 <= 0
 c247: x209 - 50 x422 <= 0
 c248: x210 - 60 x423 <= 0
 c249: x211 - 80 x424 <= 0
 c250: x212 - 50 x422 <= 0
 c251: x213 - 60 x423 <= 0
 c252: x214 - 70 x424 <= 0
 c253: x215 - 60 x422 <= 0
 c254: x216 - 65 x423 <= 0
 c255: x217 - 70 x424 <= 0
 c256: x218 - 30 x425 <= 0
 c257: x219 - 35 x426 <= 0
 c258: x220 - 40 x427 <= 0
 c259: x221 - 30 x425 <= 0
 c260: x222 - 40 x426 <= 0
 c261: x223 - 60 x427 <= 0
 c262: x224 - 50 x425 <= 0
 c263: x225 - 70 x426 <= 0
 c264: x226 - 80 x427 <= 0
 c265: x227 - 40 x428 <= 0
 c266: x228 - 50 x429 <= 0
 c267: x229 - 55 x430 <= 0
 c268: x230 - 10 x428 <= 0
 c269: x231 - 40 x429 <= 0
 c270: x232 - 45 x430 <= 0
 c271: x233 - 40 x428 <= 0
 c272: x234 - 45 x429 <= 0
 c273: x235 - 60 x430 <= 0
 c274: x236 - 50 x431 <= 0
 c275: x237 - 60 x432 <= 0
 c276: x238 - 80 x433 <= 0
 c277: x239 - 50 x431 <= 0
 c278: x240 - 60 x432 <= 0
 c279: x241 - 70 x433 <= 0
 c280: x242 - 60 x431 <= 0
 c281: x243 - 65 x432 <= 0
 c282: x244 - 70 x433 <= 0
 c283: x245 - 30 x434 <= 0
 c284: x246 - 35 x435 <= 0
 c285: x247 - 40 x436 <= 0
 c286: x248 - 30 x434 <= 0
 c287: x249 - 40 x435 <= 0
 c288: x250 - 60 x436 <= 0
 c289: x251 - 50 x434 <= 0
 c290: x252 - 70 x435 <= 0
 c291: x253 - 80 x436 <= 0
 c292: x254 - 40 x437 <= 0
 c293: x255 - 50 x438 <= 0
 c294: x256 - 55 x439 <= 0
 c295: x257 - 10 x437 <= 0
 c296: x258 - 40 x438 <= 0
 c297: x259 - 45 x439 <= 0
 c298: x260 - 40 x437 <= 0
 c299: x261 - 45 x438 <= 0
 c300: x262 - 60 x439 <= 0
 c301: x263 - 50 x440 <= 0
 c302: x264 - 60 x441 <= 0
 c303: x265 - 80 x442 <= 0
 c304: x266 - 50 x440 <= 0
 c305: x267 - 60 x441 <= 0
 c306: x268 - 70 x442 <= 0
 c307: x269 - 60 x440 <= 0
 c308: x270 - 65 x441 <= 0
 c309: x271 - 70 x442 <= 0
 c310: x272 - 30 x443 <= 0
 c311: x273 - 35 x444 <= 0
 c312: x274 - 40 x445 <= 0
 c313: x275 - 30 x443 <= 0
 c314: x276 - 40 x444 <= 0
 c315: x277 - 60 x445 <= 0
 c316: x278 - 50 x443 <= 0
 c317: x279 - 70 x444 <= 0
 c318: x280 - 80 x445 <= 0
 c319: x281 - 40 x446 <= 0
 c320: x282 - 50 x447 <= 0
 c321: x283 - 55 x448 <= 0
 c322: x284 - 10 x446 <= 0
 c323: x285 - 40 x447 <= 0
 c324: x286 - 45 x448 <= 0
 c325: x287 - 40 x446 <= 0
 c326: x288 - 45 x447 <= 0
 c327: x289 - 60 x448 <= 0
 c328: x290 - 50 x449 <= 0
 c329: x291 - 60 x450 <= 0
 c330: x292 - 80 x451 <= 0
 c331: x293 - 50 x449 <= 0
 c332: x294 - 60 x450 <= 0
 c333: x295 - 70 x451 <= 0
 c334: x296 - 60 x449 <= 0
 c335: x297 - 65 x450 <= 0
 c336: x298 - 70 x451 <= 0
 c337: x299 - 30 x452 <= 0
 c338: x300 - 35 x453 <= 0
 c339: x301 - 40 x454 <= 0
 c340: x302 - 30 x452 <= 0
 c341: x303 - 40 x453 <= 0
 c342: x304 - 60 x454 <= 0
 c343: x305 - 50 x452 <= 0
 c344: x306 - 70 x453 <= 0
 c345: x307 - 80 x454 <= 0
 c346: x308 - 40 x455 <= 0
 c347: x309 - 50 x456 <= 0
 c348: x310 - 55 x457 <= 0
 c349: x311 - 10 x455 <= 0
 c350: x312 - 40 x456 <= 0
 c351: x313 - 45 x457 <= 0
 c352: x314 - 40 x455 <= 0
 c353: x315 - 45 x456 <= 0
 c354: x316 - 60 x457 <= 0
 c355: x317 - 50 x458 <= 0
 c356: x318 - 60 x459 <= 0
 c357: x319 - 80 x460 <= 0
 c358: x320 - 50 x458 <= 0
 c359: x321 - 60 x459 <= 0
 c360: x322 - 70 x460 <= 0
 c361: x323 - 60 x458 <= 0
 c362: x324 - 65 x459 <= 0
 c363: x325 - 70 x460 <= 0
 c364: x326 - 30 x461 <= 0
 c365: x327 - 35 x462 <= 0
 c366: x328 - 40 x463 <= 0
 c367: x329 - 30 x461 <= 0
 c368: x330 - 40 x462 <= 0
 c369: x331 - 60 x463 <= 0
 c370: x332 - 50 x461 <= 0
 c371: x333 - 70 x462 <= 0
 c372: x334 - 80 x463 <= 0
 c373: x335 - 40 x464 <= 0
 c374: x336 - 50 x465 <= 0
 c375: x337 - 55 x466 <= 0
 c376: x338 - 10 x464 <= 0
 c377: x339 - 40 x465 <= 0
 c378: x340 - 45 x466 <= 0
 c379: x341 - 40 x464 <= 0
 c380: x342 - 45 x465 <= 0
 c381: x343 - 60 x466 <= 0
 c382: x344 - 50 x467 <= 0
 c383: x345 - 60 x468 <= 0
 c384: x346 - 80 x469 <= 0
 c385: x347 - 50 x467 <= 0
 c386: x348 - 60 x468 <= 0
 c387: x349 - 70 x469 <= 0
 c388: x350 - 60 x467 <= 0
 c389: x351 - 65 x468 <= 0
 c390: x352 - 70 x469 <= 0
 c391: - 37 planes + x2 + x3 + x4 <= 0
 c392: - 37 planes + x2 + x3 + x4 + x470  = 0
 c393: - 37 planes + x5 + x6 + x7 <= 0
 c394: - 37 planes + x5 + x6 + x7 + x471  = 0
 c395: - 37 planes + x8 + x9 + x10 <= 0
 c396: - 37 planes + x8 + x9 + x10 + x472  = 0
 c397: - 38 planes + x11 + x12 + x13 <= 0
 c398: - 38 planes + x11 + x12 + x13 + x473  = 0
 c399: - 38 planes + x14 + x15 + x16 <= 0
 c400: - 38 planes + x14 + x15 + x16 + x474  = 0
 c401: - 38 planes + x17 + x18 + x19 <= 0
 c402: - 38 planes + x17 + x18 + x19 + x475  = 0
 c403: - 47 planes + x20 + x21 + x22 <= 0
 c404: - 47 planes + x20 + x21 + x22 + x476  = 0
 c405: - 47 planes + x23 + x24 + x25 <= 0
 c406: - 47 planes + x23 + x24 + x25 + x477  = 0
 c407: - 47 planes + x26 + x27 + x28 <= 0
 c408: - 47 planes + x26 + x27 + x28 + x478  = 0
 c409: x29 + x30 + x31 - x470 <= 0
 c410: x29 + x30 + x31 - x470 + x479  = 0
 c411: x32 + x33 + x34 - x470 <= 0
 c412: x32 + x33 + x34 - x470 + x480  = 0
 c413: x35 + x36 + x37 - x470 <= 0
 c414: x35 + x36 + x37 - x470 + x481  = 0
 c415: x38 + x39 + x40 - x473 <= 0
 c416: x38 + x39 + x40 - x473 + x482  = 0
 c417: x41 + x42 + x43 - x473 <= 0
 c418: x41 + x42 + x43 - x473 + x483  = 0
 c419: x44 + x45 + x46 - x473 <= 0
 c420: x44 + x45 + x46 - x473 + x484  = 0
 c421: x47 + x48 + x49 - x476 <= 0
 c422: x47 + x48 + x49 - x476 + x485  = 0
 c423: x50 + x51 + x52 - x476 <= 0
 c424: x50 + x51 + x52 - x476 + x486  = 0
 c425: x53 + x54 + x55 - x476 <= 0
 c426: x53 + x54 + x55 - x476 + x487  = 0
 c427: x56 + x57 + x58 - x471 <= 0
 c428: x56 + x57 + x58 - x471 + x488  = 0
 c429: x59 + x60 + x61 - x471 <= 0
 c430: x59 + x60 + x61 - x471 + x489  = 0
 c431: x62 + x63 + x64 - x471 <= 0
 c432: x62 + x63 + x64 - x471 + x490  = 0
 c433: x65 + x66 + x67 - x474 <= 0
 c434: x65 + x66 + x67 - x474 + x491  = 0
 c435: x68 + x69 + x70 - x474 <= 0
 c436: x68 + x69 + x70 - x474 + x492  = 0
 c437: x71 + x72 + x73 - x474 <= 0
 c438: x71 + x72 + x73 - x474 + x493  = 0
 c439: x74 + x75 + x76 - x477 <= 0
 c440: x74 + x75 + x76 - x477 + x494  = 0
 c441: x77 + x78 + x79 - x477 <= 0
 c442: x77 + x78 + x79 - x477 + x495  = 0
 c443: x80 + x81 + x82 - x477 <= 0
 c444: x80 + x81 + x82 - x477 + x496  = 0
 c445: x83 + x84 + x85 - x472 <= 0
 c446: x83 + x84 + x85 - x472 + x497  = 0
 c447: x86 + x87 + x88 - x472 <= 0
 c448: x86 + x87 + x88 - x472 + x498  = 0
 c449: x89 + x90 + x91 - x472 <= 0
 c450: x89 + x90 + x91 - x472 + x499  = 0
 c451: x92 + x93 + x94 - x475 <= 0
 c452: x92 + x93 + x94 - x475 + x500  = 0
 c453: x95 + x96 + x97 - x475 <= 0
 c454: x95 + x96 + x97 - x475 + x501  = 0
 c455: x98 + x99 + x100 - x475 <= 0
 c456: x98 + x99 + x100 - x475 + x502  = 0
 c457: x101 + x102 + x103 - x478 <= 0
 c458: x101 + x102 + x103 - x478 + x503  = 0
 c459: x104 + x105 + x106 - x478 <= 0
 c460: x104 + x105 + x106 - x478 + x504  = 0
 c461: x107 + x108 + x109 - x478 <= 0
 c462: x107 + x108 + x109 - x478 + x505  = 0
 c463: x110 + x111 + x112 - x479 <= 0
 c464: x113 + x114 + x115 - x479 <= 0
 c465: x116 + x117 + x118 - x479 <= 0
 c466: x119 + x120 + x121 - x482 <= 0
 c467: x122 + x123 + x124 - x482 <= 0
 c468: x125 + x126 + x127 - x482 <= 0
 c469: x128 + x129 + x130 - x485 <= 0
 c470: x131 + x132 + x133 - x485 <= 0
 c471: x134 + x135 + x136 - x485 <= 0
 c472: x137 + x138 + x139 - x480 <= 0
 c473: x140 + x141 + x142 - x480 <= 0
 c474: x143 + x144 + x145 - x480 <= 0
 c475: x146 + x147 + x148 - x483 <= 0
 c476: x149 + x150 + x151 - x483 <= 0
 c477: x152 + x153 + x154 - x483 <= 0
 c478: x155 + x156 + x157 - x486 <= 0
 c479: x158 + x159 + x160 - x486 <= 0
 c480: x161 + x162 + x163 - x486 <= 0
 c481: x164 + x165 + x166 - x481 <= 0
 c482: x167 + x168 + x169 - x481 <= 0
 c483: x170 + x171 + x172 - x481 <= 0
 c484: x173 + x174 + x175 - x484 <= 0
 c485: x176 + x177 + x178 - x484 <= 0
 c486: x179 + x180 + x181 - x484 <= 0
 c487: x182 + x183 + x184 - x487 <= 0
 c488: x185 + x186 + x187 - x487 <= 0
 c489: x188 + x189 + x190 - x487 <= 0
 c490: x191 + x192 + x193 - x488 <= 0
 c491: x194 + x195 + x196 - x488 <= 0
 c492: x197 + x198 + x199 - x488 <= 0
 c493: x200 + x201 + x202 - x491 <= 0
 c494: x203 + x204 + x205 - x491 <= 0
 c495: x206 + x207 + x208 - x491 <= 0
 c496: x209 + x210 + x211 - x494 <= 0
 c497: x212 + x213 + x214 - x494 <= 0
 c498: x215 + x216 + x217 - x494 <= 0
 c499: x218 + x219 + x220 - x489 <= 0
 c500: x221 + x222 + x223 - x489 <= 0
 c501: x224 + x225 + x226 - x489 <= 0
 c502: x227 + x228 + x229 - x492 <= 0
 c503: x230 + x231 + x232 - x492 <= 0
 c504: x233 + x234 + x235 - x492 <= 0
 c505: x236 + x237 + x238 - x495 <= 0
 c506: x239 + x240 + x241 - x495 <= 0
 c507: x242 + x243 + x244 - x495 <= 0
 c508: x245 + x246 + x247 - x490 <= 0
 c509: x248 + x249 + x250 - x490 <= 0
 c510: x251 + x252 + x253 - x490 <= 0
 c511: x254 + x255 + x256 - x493 <= 0
 c512: x257 + x258 + x259 - x493 <= 0
 c513: x260 + x261 + x262 - x493 <= 0
 c514: x263 + x264 + x265 - x496 <= 0
 c515: x266 + x267 + x268 - x496 <= 0
 c516: x269 + x270 + x271 - x496 <= 0
 c517: x272 + x273 + x274 - x497 <= 0
 c518: x275 + x276 + x277 - x497 <= 0
 c519: x278 + x279 + x280 - x497 <= 0
 c520: x281 + x282 + x283 - x500 <= 0
 c521: x284 + x285 + x286 - x500 <= 0
 c522: x287 + x288 + x289 - x500 <= 0
 c523: x290 + x291 + x292 - x503 <= 0
 c524: x293 + x294 + x295 - x503 <= 0
 c525: x296 + x297 + x298 - x503 <= 0
 c526: x299 + x300 + x301 - x498 <= 0
 c527: x302 + x303 + x304 - x498 <= 0
 c528: x305 + x306 + x307 - x498 <= 0
 c529: x308 + x309 + x310 - x501 <= 0
 c530: x311 + x312 + x313 - x501 <= 0
 c531: x314 + x315 + x316 - x501 <= 0
 c532: x317 + x318 + x319 - x504 <= 0
 c533: x320 + x321 + x322 - x504 <= 0
 c534: x323 + x324 + x325 - x504 <= 0
 c535: x326 + x327 + x328 - x499 <= 0
 c536: x329 + x330 + x331 - x499 <= 0
 c537: x332 + x333 + x334 - x499 <= 0
 c538: x335 + x336 + x337 - x502 <= 0
 c539: x338 + x339 + x340 - x502 <= 0
 c540: x341 + x342 + x343 - x502 <= 0
 c541: x344 + x345 + x346 - x505 <= 0
 c542: x347 + x348 + x349 - x505 <= 0
 c543: x350 + x351 + x352 - x505 <= 0
 c544: - 122 planes + x2 + x3 + x4 + x11 + x12 + x13 + x20 + x21 + x22 <= 0
 c545: - 122 planes + x5 + x6 + x7 + x14 + x15 + x16 + x23 + x24 + x25 <= 0
 c546: - 122 planes + x8 + x9 + x10 + x17 + x18 + x19 + x26 + x27 + x28 <= 0
 c547: - 122 planes + x29 + x30 + x31 + x38 + x39 + x40 + x47 + x48 + x49 <= 0
 c548: - 122 planes + x32 + x33 + x34 + x41 + x42 + x43 + x50 + x51 + x52 <= 0
 c549: - 122 planes + x35 + x36 + x37 + x44 + x45 + x46 + x53 + x54 + x55 <= 0
 c550: - 122 planes + x56 + x57 + x58 + x65 + x66 + x67 + x74 + x75 + x76 <= 0
 c551: - 122 planes + x59 + x60 + x61 + x68 + x69 + x70 + x77 + x78 + x79 <= 0
 c552: - 122 planes + x62 + x63 + x64 + x71 + x72 + x73 + x80 + x81 + x82 <= 0
 c553: - 122 planes + x83 + x84 + x85 + x92 + x93 + x94 + x101 + x102 + x103
       <= 0
 c554: - 122 planes + x86 + x87 + x88 + x95 + x96 + x97 + x104 + x105 + x106
       <= 0
 c555: - 122 planes + x89 + x90 + x91 + x98 + x99 + x100 + x107 + x108 + x109
       <= 0
 c556: - 122 planes + x110 + x111 + x112 + x119 + x120 + x121 + x128 + x129
       + x130 <= 0
 c557: - 122 planes + x113 + x114 + x115 + x122 + x123 + x124 + x131 + x132
       + x133 <= 0
 c558: - 122 planes + x116 + x117 + x118 + x125 + x126 + x127 + x134 + x135
       + x136 <= 0
 c559: - 122 planes + x137 + x138 + x139 + x146 + x147 + x148 + x155 + x156
       + x157 <= 0
 c560: - 122 planes + x140 + x141 + x142 + x149 + x150 + x151 + x158 + x159
       + x160 <= 0
 c561: - 122 planes + x143 + x144 + x145 + x152 + x153 + x154 + x161 + x162
       + x163 <= 0
 c562: - 122 planes + x164 + x165 + x166 + x173 + x174 + x175 + x182 + x183
       + x184 <= 0
 c563: - 122 planes + x167 + x168 + x169 + x176 + x177 + x178 + x185 + x186
       + x187 <= 0
 c564: - 122 planes + x170 + x171 + x172 + x179 + x180 + x181 + x188 + x189
       + x190 <= 0
 c565: - 122 planes + x191 + x192 + x193 + x200 + x201 + x202 + x209 + x210
       + x211 <= 0
 c566: - 122 planes + x194 + x195 + x196 + x203 + x204 + x205 + x212 + x213
       + x214 <= 0
 c567: - 122 planes + x197 + x198 + x199 + x206 + x207 + x208 + x215 + x216
       + x217 <= 0
 c568: - 122 planes + x218 + x219 + x220 + x227 + x228 + x229 + x236 + x237
       + x238 <= 0
 c569: - 122 planes + x221 + x222 + x223 + x230 + x231 + x232 + x239 + x240
       + x241 <= 0
 c570: - 122 planes + x224 + x225 + x226 + x233 + x234 + x235 + x242 + x243
       + x244 <= 0
 c571: - 122 planes + x245 + x246 + x247 + x254 + x255 + x256 + x263 + x264
       + x265 <= 0
 c572: - 122 planes + x248 + x249 + x250 + x257 + x258 + x259 + x266 + x267
       + x268 <= 0
 c573: - 122 planes + x251 + x252 + x253 + x260 + x261 + x262 + x269 + x270
       + x271 <= 0
 c574: - 122 planes + x272 + x273 + x274 + x281 + x282 + x283 + x290 + x291
       + x292 <= 0
 c575: - 122 planes + x275 + x276 + x277 + x284 + x285 + x286 + x293 + x294
       + x295 <= 0
 c576: - 122 planes + x278 + x279 + x280 + x287 + x288 + x289 + x296 + x297
       + x298 <= 0
 c577: - 122 planes + x299 + x300 + x301 + x308 + x309 + x310 + x317 + x318
       + x319 <= 0
 c578: - 122 planes + x302 + x303 + x304 + x311 + x312 + x313 + x320 + x321
       + x322 <= 0
 c579: - 122 planes + x305 + x306 + x307 + x314 + x315 + x316 + x323 + x324
       + x325 <= 0
 c580: - 122 planes + x326 + x327 + x328 + x335 + x336 + x337 + x344 + x345
       + x346 <= 0
 c581: - 122 planes + x329 + x330 + x331 + x338 + x339 + x340 + x347 + x348
       + x349 <= 0
 c582: - 122 planes + x332 + x333 + x334 + x341 + x342 + x343 + x350 + x351
       + x352 <= 0
Bounds
 0 <= planes <= 6
 0 <= x2 <= 2147483647
 0 <= x3 <= 2147483647
 0 <= x4 <= 2147483647
 0 <= x5 <= 2147483647
 0 <= x6 <= 2147483647
 0 <= x7 <= 2147483647
 0 <= x8 <= 2147483647
 0 <= x9 <= 2147483647
 0 <= x10 <= 2147483647
 0 <= x11 <= 2147483647
 0 <= x12 <= 2147483647
 0 <= x13 <= 2147483647
 0 <= x14 <= 2147483647
 0 <= x15 <= 2147483647
 0 <= x16 <= 2147483647
 0 <= x17 <= 2147483647
 0 <= x18 <= 2147483647
 0 <= x19 <= 2147483647
 0 <= x20 <= 2147483647
 0 <= x21 <= 2147483647
 0 <= x22 <= 2147483647
 0 <= x23 <= 2147483647
 0 <= x24 <= 2147483647
 0 <= x25 <= 2147483647
 0 <= x26 <= 2147483647
 0 <= x27 <= 2147483647
 0 <= x28 <= 2147483647
 0 <= x29 <= 2147483647
 0 <= x30 <= 2147483647
 0 <= x31 <= 2147483647
 0 <= x32 <= 2147483647
 0 <= x33 <= 2147483647
 0 <= x34 <= 2147483647
 0 <= x35 <= 2147483647
 0 <= x36 <= 2147483647
 0 <= x37 <= 2147483647
 0 <= x38 <= 2147483647
 0 <= x39 <= 2147483647
 0 <= x40 <= 2147483647
 0 <= x41 <= 2147483647
 0 <= x42 <= 2147483647
 0 <= x43 <= 2147483647
 0 <= x44 <= 2147483647
 0 <= x45 <= 2147483647
 0 <= x46 <= 2147483647
 0 <= x47 <= 2147483647
 0 <= x48 <= 2147483647
 0 <= x49 <= 2147483647
 0 <= x50 <= 2147483647
 0 <= x51 <= 2147483647
 0 <= x52 <= 2147483647
 0 <= x53 <= 2147483647
 0 <= x54 <= 2147483647
 0 <= x55 <= 2147483647
 0 <= x56 <= 2147483647
 0 <= x57 <= 2147483647
 0 <= x58 <= 2147483647
 0 <= x59 <= 2147483647
 0 <= x60 <= 2147483647
 0 <= x61 <= 2147483647
 0 <= x62 <= 2147483647
 0 <= x63 <= 2147483647
 0 <= x64 <= 2147483647
 0 <= x65 <= 2147483647
 0 <= x66 <= 2147483647
 0 <= x67 <= 2147483647
 0 <= x68 <= 2147483647
 0 <= x69 <= 2147483647
 0 <= x70 <= 2147483647
 0 <= x71 <= 2147483647
 0 <= x72 <= 2147483647
 0 <= x73 <= 2147483647
 0 <= x74 <= 2147483647
 0 <= x75 <= 2147483647
 0 <= x76 <= 2147483647
 0 <= x77 <= 2147483647
 0 <= x78 <= 2147483647
 0 <= x79 <= 2147483647
 0 <= x80 <= 2147483647
 0 <= x81 <= 2147483647
 0 <= x82 <= 2147483647
 0 <= x83 <= 2147483647
 0 <= x84 <= 2147483647
 0 <= x85 <= 2147483647
 0 <= x86 <= 2147483647
 0 <= x87 <= 2147483647
 0 <= x88 <= 2147483647
 0 <= x89 <= 2147483647
 0 <= x90 <= 2147483647
 0 <= x91 <= 2147483647
 0 <= x92 <= 2147483647
 0 <= x93 <= 2147483647
 0 <= x94 <= 2147483647
 0 <= x95 <= 2147483647
 0 <= x96 <= 2147483647
 0 <= x97 <= 2147483647
 0 <= x98 <= 2147483647
 0 <= x99 <= 2147483647
 0 <= x100 <= 2147483647
 0 <= x101 <= 2147483647
 0 <= x102 <= 2147483647
 0 <= x103 <= 2147483647
 0 <= x104 <= 2147483647
 0 <= x105 <= 2147483647
 0 <= x106 <= 2147483647
 0 <= x107 <= 2147483647
 0 <= x108 <= 2147483647
 0 <= x109 <= 2147483647
 0 <= x110 <= 2147483647
 0 <= x111 <= 2147483647
 0 <= x112 <= 2147483647
 0 <= x113 <= 2147483647
 0 <= x114 <= 2147483647
 0 <= x115 <= 2147483647
 0 <= x116 <= 2147483647
 0 <= x117 <= 2147483647
 0 <= x118 <= 2147483647
 0 <= x119 <= 2147483647
 0 <= x120 <= 2147483647
 0 <= x121 <= 2147483647
 0 <= x122 <= 2147483647
 0 <= x123 <= 2147483647
 0 <= x124 <= 2147483647
 0 <= x125 <= 2147483647
 0 <= x126 <= 2147483647
 0 <= x127 <= 2147483647
 0 <= x128 <= 2147483647
 0 <= x129 <= 2147483647
 0 <= x130 <= 2147483647
 0 <= x131 <= 2147483647
 0 <= x132 <= 2147483647
 0 <= x133 <= 2147483647
 0 <= x134 <= 2147483647
 0 <= x135 <= 2147483647
 0 <= x136 <= 2147483647
 0 <= x137 <= 2147483647
 0 <= x138 <= 2147483647
 0 <= x139 <= 2147483647
 0 <= x140 <= 2147483647
 0 <= x141 <= 2147483647
 0 <= x142 <= 2147483647
 0 <= x143 <= 2147483647
 0 <= x144 <= 2147483647
 0 <= x145 <= 2147483647
 0 <= x146 <= 2147483647
 0 <= x147 <= 2147483647
 0 <= x148 <= 2147483647
 0 <= x149 <= 2147483647
 0 <= x150 <= 2147483647
 0 <= x151 <= 2147483647
 0 <= x152 <= 2147483647
 0 <= x153 <= 2147483647
 0 <= x154 <= 2147483647
 0 <= x155 <= 2147483647
 0 <= x156 <= 2147483647
 0 <= x157 <= 2147483647
 0 <= x158 <= 2147483647
 0 <= x159 <= 2147483647
 0 <= x160 <= 2147483647
 0 <= x161 <= 2147483647
 0 <= x162 <= 2147483647
 0 <= x163 <= 2147483647
 0 <= x164 <= 2147483647
 0 <= x165 <= 2147483647
 0 <= x166 <= 2147483647
 0 <= x167 <= 2147483647
 0 <= x168 <= 2147483647
 0 <= x169 <= 2147483647
 0 <= x170 <= 2147483647
 0 <= x171 <= 2147483647
 0 <= x172 <= 2147483647
 0 <= x173 <= 2147483647
 0 <= x174 <= 2147483647
 0 <= x175 <= 2147483647
 0 <= x176 <= 2147483647
 0 <= x177 <= 2147483647
 0 <= x178 <= 2147483647
 0 <= x179 <= 2147483647
 0 <= x180 <= 2147483647
 0 <= x181 <= 2147483647
 0 <= x182 <= 2147483647
 0 <= x183 <= 2147483647
 0 <= x184 <= 2147483647
 0 <= x185 <= 2147483647
 0 <= x186 <= 2147483647
 0 <= x187 <= 2147483647
 0 <= x188 <= 2147483647
 0 <= x189 <= 2147483647
 0 <= x190 <= 2147483647
 0 <= x191 <= 2147483647
 0 <= x192 <= 2147483647
 0 <= x193 <= 2147483647
 0 <= x194 <= 2147483647
 0 <= x195 <= 2147483647
 0 <= x196 <= 2147483647
 0 <= x197 <= 2147483647
 0 <= x198 <= 2147483647
 0 <= x199 <= 2147483647
 0 <= x200 <= 2147483647
 0 <= x201 <= 2147483647
 0 <= x202 <= 2147483647
 0 <= x203 <= 2147483647
 0 <= x204 <= 2147483647
 0 <= x205 <= 2147483647
 0 <= x206 <= 2147483647
 0 <= x207 <= 2147483647
 0 <= x208 <= 2147483647
 0 <= x209 <= 2147483647
 0 <= x210 <= 2147483647
 0 <= x211 <= 2147483647
 0 <= x212 <= 2147483647
 0 <= x213 <= 2147483647
 0 <= x214 <= 2147483647
 0 <= x215 <= 2147483647
 0 <= x216 <= 2147483647
 0 <= x217 <= 2147483647
 0 <= x218 <= 2147483647
 0 <= x219 <= 2147483647
 0 <= x220 <= 2147483647
 0 <= x221 <= 2147483647
 0 <= x222 <= 2147483647
 0 <= x223 <= 2147483647
 0 <= x224 <= 2147483647
 0 <= x225 <= 2147483647
 0 <= x226 <= 2147483647
 0 <= x227 <= 2147483647
 0 <= x228 <= 2147483647
 0 <= x229 <= 2147483647
 0 <= x230 <= 2147483647
 0 <= x231 <= 2147483647
 0 <= x232 <= 2147483647
 0 <= x233 <= 2147483647
 0 <= x234 <= 2147483647
 0 <= x235 <= 2147483647
 0 <= x236 <= 2147483647
 0 <= x237 <= 2147483647
 0 <= x238 <= 2147483647
 0 <= x239 <= 2147483647
 0 <= x240 <= 2147483647
 0 <= x241 <= 2147483647
 0 <= x242 <= 2147483647
 0 <= x243 <= 2147483647
 0 <= x244 <= 2147483647
 0 <= x245 <= 2147483647
 0 <= x246 <= 2147483647
 0 <= x247 <= 2147483647
 0 <= x248 <= 2147483647
 0 <= x249 <= 2147483647
 0 <= x250 <= 2147483647
 0 <= x251 <= 2147483647
 0 <= x252 <= 2147483647
 0 <= x253 <= 2147483647
 0 <= x254 <= 2147483647
 0 <= x255 <= 2147483647
 0 <= x256 <= 2147483647
 0 <= x257 <= 2147483647
 0 <= x258 <= 2147483647
 0 <= x259 <= 2147483647
 0 <= x260 <= 2147483647
 0 <= x261 <= 2147483647
 0 <= x262 <= 2147483647
 0 <= x263 <= 2147483647
 0 <= x264 <= 2147483647
 0 <= x265 <= 2147483647
 0 <= x266 <= 2147483647
 0 <= x267 <= 2147483647
 0 <= x268 <= 2147483647
 0 <= x269 <= 2147483647
 0 <= x270 <= 2147483647
 0 <= x271 <= 2147483647
 0 <= x272 <= 2147483647
 0 <= x273 <= 2147483647
 0 <= x274 <= 2147483647
 0 <= x275 <= 2147483647
 0 <= x276 <= 2147483647
 0 <= x277 <= 2147483647
 0 <= x278 <= 2147483647
 0 <= x279 <= 2147483647
 0 <= x280 <= 2147483647
 0 <= x281 <= 2147483647
 0 <= x282 <= 2147483647
 0 <= x283 <= 2147483647
 0 <= x284 <= 2147483647
 0 <= x285 <= 2147483647
 0 <= x286 <= 2147483647
 0 <= x287 <= 2147483647
 0 <= x288 <= 2147483647
 0 <= x289 <= 2147483647
 0 <= x290 <= 2147483647
 0 <= x291 <= 2147483647
 0 <= x292 <= 2147483647
 0 <= x293 <= 2147483647
 0 <= x294 <= 2147483647
 0 <= x295 <= 2147483647
 0 <= x296 <= 2147483647
 0 <= x297 <= 2147483647
 0 <= x298 <= 2147483647
 0 <= x299 <= 2147483647
 0 <= x300 <= 2147483647
 0 <= x301 <= 2147483647
 0 <= x302 <= 2147483647
 0 <= x303 <= 2147483647
 0 <= x304 <= 2147483647
 0 <= x305 <= 2147483647
 0 <= x306 <= 2147483647
 0 <= x307 <= 2147483647
 0 <= x308 <= 2147483647
 0 <= x309 <= 2147483647
 0 <= x310 <= 2147483647
 0 <= x311 <= 2147483647
 0 <= x312 <= 2147483647
 0 <= x313 <= 2147483647
 0 <= x314 <= 2147483647
 0 <= x315 <= 2147483647
 0 <= x316 <= 2147483647
 0 <= x317 <= 2147483647
 0 <= x318 <= 2147483647
 0 <= x319 <= 2147483647
 0 <= x320 <= 2147483647
 0 <= x321 <= 2147483647
 0 <= x322 <= 2147483647
 0 <= x323 <= 2147483647
 0 <= x324 <= 2147483647
 0 <= x325 <= 2147483647
 0 <= x326 <= 2147483647
 0 <= x327 <= 2147483647
 0 <= x328 <= 2147483647
 0 <= x329 <= 2147483647
 0 <= x330 <= 2147483647
 0 <= x331 <= 2147483647
 0 <= x332 <= 2147483647
 0 <= x333 <= 2147483647
 0 <= x334 <= 2147483647
 0 <= x335 <= 2147483647
 0 <= x336 <= 2147483647
 0 <= x337 <= 2147483647
 0 <= x338 <= 2147483647
 0 <= x339 <= 2147483647
 0 <= x340 <= 2147483647
 0 <= x341 <= 2147483647
 0 <= x342 <= 2147483647
 0 <= x343 <= 2147483647
 0 <= x344 <= 2147483647
 0 <= x345 <= 2147483647
 0 <= x346 <= 2147483647
 0 <= x347 <= 2147483647
 0 <= x348 <= 2147483647
 0 <= x349 <= 2147483647
 0 <= x350 <= 2147483647
 0 <= x351 <= 2147483647
 0 <= x352 <= 2147483647
 0 <= x1_0_0 <= 1
 0 <= x1_0_1 <= 1
 0 <= x1_0_2 <= 1
 0 <= x1_1_0 <= 1
 0 <= x1_1_1 <= 1
 0 <= x1_1_2 <= 1
 0 <= x1_2_0 <= 1
 0 <= x1_2_1 <= 1
 0 <= x1_2_2 <= 1
 0 <= x362 <= 1
 0 <= x363 <= 1
 0 <= x364 <= 1
 0 <= x365 <= 1
 0 <= x366 <= 1
 0 <= x367 <= 1
 0 <= x368 <= 1
 0 <= x369 <= 1
 0 <= x370 <= 1
 0 <= x371 <= 1
 0 <= x372 <= 1
 0 <= x373 <= 1
 0 <= x374 <= 1
 0 <= x375 <= 1
 0 <= x376 <= 1
 0 <= x377 <= 1
 0 <= x378 <= 1
 0 <= x379 <= 1
 0 <= x380 <= 1
 0 <= x381 <= 1
 0 <= x382 <= 1
 0 <= x383 <= 1
 0 <= x384 <= 1
 0 <= x385 <= 1
 0 <= x386 <= 1
 0 <= x387 <= 1
 0 <= x388 <= 1
 0 <= x389 <= 1
 0 <= x390 <= 1
 0 <= x391 <= 1
 0 <= x392 <= 1
 0 <= x393 <= 1
 0 <= x394 <= 1
 0 <= x395 <= 1
 0 <= x396 <= 1
 0 <= x397 <= 1
 0 <= x398 <= 1
 0 <= x399 <= 1
 0 <= x400 <= 1
 0 <= x401 <= 1
 0 <= x402 <= 1
 0 <= x403 <= 1
 0 <= x404 <= 1
 0 <= x405 <= 1
 0 <= x406 <= 1
 0 <= x407 <= 1
 0 <= x408 <= 1
 0 <= x409 <= 1
 0 <= x410 <= 1
 0 <= x411 <= 1
 0 <= x412 <= 1
 0 <= x413 <= 1
 0 <= x414 <= 1
 0 <= x415 <= 1
 0 <= x416 <= 1
 0 <= x417 <= 1
 0 <= x418 <= 1
 0 <= x419 <= 1
 0 <= x420 <= 1
 0 <= x421 <= 1
 0 <= x422 <= 1
 0 <= x423 <= 1
 0 <= x424 <= 1
 0 <= x425 <= 1
 0 <= x426 <= 1
 0 <= x427 <= 1
 0 <= x428 <= 1
 0 <= x429 <= 1
 0 <= x430 <= 1
 0 <= x431 <= 1
 0 <= x432 <= 1
 0 <= x433 <= 1
 0 <= x434 <= 1
 0 <= x435 <= 1
 0 <= x436 <= 1
 0 <= x437 <= 1
 0 <= x438 <= 1
 0 <= x439 <= 1
 0 <= x440 <= 1
 0 <= x441 <= 1
 0 <= x442 <= 1
 0 <= x443 <= 1
 0 <= x444 <= 1
 0 <= x445 <= 1
 0 <= x446 <= 1
 0 <= x447 <= 1
 0 <= x448 <= 1
 0 <= x449 <= 1
 0 <= x450 <= 1
 0 <= x451 <= 1
 0 <= x452 <= 1
 0 <= x453 <= 1
 0 <= x454 <= 1
 0 <= x455 <= 1
 0 <= x456 <= 1
 0 <= x457 <= 1
 0 <= x458 <= 1
 0 <= x459 <= 1
 0 <= x460 <= 1
 0 <= x461 <= 1
 0 <= x462 <= 1
 0 <= x463 <= 1
 0 <= x464 <= 1
 0 <= x465 <= 1
 0 <= x466 <= 1
 0 <= x467 <= 1
 0 <= x468 <= 1
 0 <= x469 <= 1
 0 <= x470 <= 2147483647
 0 <= x471 <= 2147483647
 0 <= x472 <= 2147483647
 0 <= x473 <= 2147483647
 0 <= x474 <= 2147483647
 0 <= x475 <= 2147483647
 0 <= x476 <= 2147483647
 0 <= x477 <= 2147483647
 0 <= x478 <= 2147483647
 0 <= x479 <= 2147483647
 0 <= x480 <= 2147483647
 0 <= x481 <= 2147483647
 0 <= x482 <= 2147483647
 0 <= x483 <= 2147483647
 0 <= x484 <= 2147483647
 0 <= x485 <= 2147483647
 0 <= x486 <= 2147483647
 0 <= x487 <= 2147483647
 0 <= x488 <= 2147483647
 0 <= x489 <= 2147483647
 0 <= x490 <= 2147483647
 0 <= x491 <= 2147483647
 0 <= x492 <= 2147483647
 0 <= x493 <= 2147483647
 0 <= x494 <= 2147483647
 0 <= x495 <= 2147483647
 0 <= x496 <= 2147483647
 0 <= x497 <= 2147483647
 0 <= x498 <= 2147483647
 0 <= x499 <= 2147483647
 0 <= x500 <= 2147483647
 0 <= x501 <= 2147483647
 0 <= x502 <= 2147483647
 0 <= x503 <= 2147483647
 0 <= x504 <= 2147483647
 0 <= x505 <= 2147483647
Binaries
 x1_0_0  x1_0_1  x1_0_2  x1_1_0  x1_1_1  x1_1_2  x1_2_0  x1_2_1  x1_2_2  x362 
 x363  x364  x365  x366  x367  x368  x369  x370  x371  x372  x373  x374  x375 
 x376  x377  x378  x379  x380  x381  x382  x383  x384  x385  x386  x387  x388 
 x389  x390  x391  x392  x393  x394  x395  x396  x397  x398  x399  x400  x401 
 x402  x403  x404  x405  x406  x407  x408  x409  x410  x411  x412  x413  x414 
 x415  x416  x417  x418  x419  x420  x421  x422  x423  x424  x425  x426  x427 
 x428  x429  x430  x431  x432  x433  x434  x435  x436  x437  x438  x439  x440 
 x441  x442  x443  x444  x445  x446  x447  x448  x449  x450  x451  x452  x453 
 x454  x455  x456  x457  x458  x459  x460  x461  x462  x463  x464  x465  x466 
 x467  x468  x469 
Generals
 planes  x2  x3  x4  x5  x6  x7  x8  x9  x10  x11  x12  x13  x14  x15  x16 
 x17  x18  x19  x20  x21  x22  x23  x24  x25  x26  x27  x28  x29  x30  x31 
 x32  x33  x34  x35  x36  x37  x38  x39  x40  x41  x42  x43  x44  x45  x46 
 x47  x48  x49  x50  x51  x52  x53  x54  x55  x56  x57  x58  x59  x60  x61 
 x62  x63  x64  x65  x66  x67  x68  x69  x70  x71  x72  x73  x74  x75  x76 
 x77  x78  x79  x80  x81  x82  x83  x84  x85  x86  x87  x88  x89  x90  x91 
 x92  x93  x94  x95  x96  x97  x98  x99  x100  x101  x102  x103  x104  x105 
 x106  x107  x108  x109  x110  x111  x112  x113  x114  x115  x116  x117  x118 
 x119  x120  x121  x122  x123  x124  x125  x126  x127  x128  x129  x130  x131 
 x132  x133  x134  x135  x136  x137  x138  x139  x140  x141  x142  x143  x144 
 x145  x146  x147  x148  x149  x150  x151  x152  x153  x154  x155  x156  x157 
 x158  x159  x160  x161  x162  x163  x164  x165  x166  x167  x168  x169  x170 
 x171  x172  x173  x174  x175  x176  x177  x178  x179  x180  x181  x182  x183 
 x184  x185  x186  x187  x188  x189  x190  x191  x192  x193  x194  x195  x196 
 x197  x198  x199  x200  x201  x202  x203  x204  x205  x206  x207  x208  x209 
 x210  x211  x212  x213  x214  x215  x216  x217  x218  x219  x220  x221  x222 
 x223  x224  x225  x226  x227  x228  x229  x230  x231  x232  x233  x234  x235 
 x236  x237  x238  x239  x240  x241  x242  x243  x244  x245  x246  x247  x248 
 x249  x250  x251  x252  x253  x254  x255  x256  x257  x258  x259  x260  x261 
 x262  x263  x264  x265  x266  x267  x268  x269  x270  x271  x272  x273  x274 
 x275  x276  x277  x278  x279  x280  x281  x282  x283  x284  x285  x286  x287 
 x288  x289  x290  x291  x292  x293  x294  x295  x296  x297  x298  x299  x300 
 x301  x302  x303  x304  x305  x306  x307  x308  x309  x310  x311  x312  x313 
 x314  x315  x316  x317  x318  x319  x320  x321  x322  x323  x324  x325  x326 
 x327  x328  x329  x330  x331  x332  x333  x334  x335  x336  x337  x338  x339 
 x340  x341  x342  x343  x344  x345  x346  x347  x348  x349  x350  x351  x352 
 x470  x471  x472  x473  x474  x475  x476  x477  x478  x479  x480  x481  x482 
 x483  x484  x485  x486  x487  x488  x489  x490  x491  x492  x493  x494  x495 
 x496  x497  x498  x499  x500  x501  x502  x503  x504  x505 
End
